c This is a random SAT instance with 10 variables and 20 clauses
p cnf 10 20
-3 4 -6 9 1 -1 -10 0
-4 -7 -6 -8 0
9 -9 10 -4 -6 7 4 0
5 -1 7 8 -7 4 0
-6 -8 3 0
-3 0
-3 1 -8 2 -4 9 6 0
6 7 -2 10 5 -3 1 -1 4 0
-6 -10 4 -8 2 0
5 -4 9 -6 10 -8 -7 6 8 -3 0
5 9 4 1 8 -2 -8 7 0
5 -7 8 -1 2 10 1 0
-6 5 -7 0
2 -7 -4 -2 7 -8 10 -3 0
-2 7 -6 -3 -7 6 5 2 -4 0
2 9 4 0
1 -5 -3 -10 0
7 -5 8 -1 -3 -2 -4 10 5 0
10 0
0